WARNING: for repeatability, setting FPU to use double precision
============================[ Problem Statistics ]=============================
|                                                                             |
|  Number of variables:           100                                         |
|  Number of clauses:             449                                         |
|  Parse time:                   0.00 s                                       |
|  Eliminated clauses:           0.00 Mb                                      |
|  Simplification time:          0.00 s                                       |
|                                                                             |
============================[ Search Statistics ]==============================
| Conflicts |          ORIGINAL         |          LEARNT          | Progress |
|           |    Vars  Clauses Literals |    Limit  Clauses Lit/Cl |          |
===============================================================================
|       100 |      97      445     1354 |      163      100      8 |  0.010 % |
|       250 |      97      445     1354 |      179      163      7 |  0.010 % |
===============================================================================
restarts              : 3
conflicts             : 282            (74269 /sec)
decisions             : 355            (0.00 % random) (93495 /sec)
propagations          : 6519           (1716882 /sec)
conflict literals     : 1963           (19.94 % deleted)
Memory used           : 13.00 MB
CPU time              : 0.003797 s

SATISFIABLE
